# ---------------------Definizione dell'unità e dello stile degli atomi---------------------
units        lj
atom_style   atomic

# ---------------------Creazione della scatola e degli atomi---------------------
# La simulazione riguarda una miscela binaria A e B con proporzioni 80% A e 20% B.
# Dobbiamo creare una scatola cubica e inserire gli atomi con le proporzioni desiderate.
lattice      fcc 0.8442
region       box block 0 9.4 0 9.4 0 9.4
create_box   2 box
create_atoms 1 random 800 87287 box
create_atoms 2 random 200 98234 box

# ---------------------Potenziale di interazione---------------------
# Le particelle interagiscono tramite un potenziale di Lennard-Jones modificato, con i parametri specificati nell'articolo.
pair_style   lj/cut 2.5
pair_coeff   1 1 1.0 1.0 2.5
pair_coeff   1 2 1.5 0.8 2.5
pair_coeff   2 2 0.5 0.88 2.5

# ---------------------Parametri di simulazione---------------------
# Impostiamo la massa delle particelle e creiamo una velocità iniziale.
# Usiamo un integratore nve per conservare l'energia e la quantità di moto.
mass         1 1.0
mass         2 1.0
velocity     all create 0.01 87287
fix          1 all nve

# ---------------------Integrazione del sistema e raffreddamento---------------------
# Il sistema viene inizialmente riscaldato a una temperatura elevata (T=5.0) per l'equilibratura.
# Poi, raffreddiamo gradualmente il sistema fino alla temperatura desiderata, ad esempio T=0.466.
thermo       100
thermo_style custom step temp pe ke etotal
timestep     0.001
run          10000

# ---------------------Raffreddamento---------------------
fix          2 all temp/rescale 50 5.0 0.466 0.02 1.0
run          50000
unfix        2

#---------------------Output---------------------
dump         1 all atom 100 dump.lj_mixture.lammpstrj

# ---------------------Simulazione--------------------- 
run          100000
